results - Copia/mps/BA_06_makespan_heurFalse.mps
NAME JobShopModel
ROWS
 N  OBJ
 G  c0      
 E  c1      
 E  c2      
 E  c3      
 E  c4      
 E  c5      
 E  c6      
 E  c7      
 E  c8      
 E  c9      
 L  c10     
 L  c11     
 L  c12     
 L  c13     
 L  c14     
 L  c15     
 L  c16     
 L  c17     
 L  c18     
 G  c19     
 G  c20     
 G  c21     
 G  c22     
 G  c23     
 G  c24     
 G  c25     
 G  c26     
 G  c27     
 G  c28     
 G  c29     
 G  c30     
 G  c31     
 G  c32     
 G  c33     
 G  c34     
 G  c35     
 G  c36     
 G  c37     
 G  c38     
 G  c39     
 G  c40     
 G  c41     
 G  c42     
 G  c43     
 G  c44     
 G  c45     
 G  c46     
 G  c47     
 G  c48     
 G  c49     
 G  c50     
 G  c51     
 G  c52     
 G  c53     
 G  c54     
 G  c55     
 G  c56     
 G  c57     
 G  c58     
 G  c59     
 G  c60     
 G  c61     
 G  c62     
 G  c63     
 G  c64     
COLUMNS
    MARKER    'MARKER'                 'INTORG'
    y[0,0,0]  c0        -4
    y[0,0,0]  c1        1
    y[0,0,0]  c10       -10000000
    y[0,0,0]  c25       -10000000
    y[0,0,0]  c26       -10000000
    y[0,0,0]  c27       -10000000
    y[0,0,0]  c28       -10000000
    y[0,0,0]  c29       -10000000
    y[0,0,0]  c30       -10000000
    y[0,0,0]  c47       -2
    y[0,1,1]  c2        1
    y[0,1,1]  c11       -10000000
    y[0,1,1]  c19       -4
    y[0,1,1]  c31       -10000000
    y[0,1,1]  c32       -10000000
    y[0,1,1]  c49       -3
    y[0,2,2]  c3        1
    y[0,2,2]  c12       -10000000
    y[0,2,2]  c20       -5
    y[0,2,2]  c33       -10000000
    y[0,2,2]  c34       -10000000
    y[0,2,2]  c35       -10000000
    y[0,2,2]  c36       -10000000
    y[0,2,2]  c51       -3
    y[1,0,2]  c0        -5
    y[1,0,2]  c4        1
    y[1,0,2]  c13       -10000000
    y[1,0,2]  c33       -10000000
    y[1,0,2]  c34       -10000000
    y[1,0,2]  c37       -10000000
    y[1,0,2]  c38       -10000000
    y[1,0,2]  c53       -3
    y[1,1,0]  c5        1
    y[1,1,0]  c14       -10000000
    y[1,1,0]  c21       -4
    y[1,1,0]  c25       -10000000
    y[1,1,0]  c26       -10000000
    y[1,1,0]  c39       -10000000
    y[1,1,0]  c40       -10000000
    y[1,1,0]  c41       -10000000
    y[1,1,0]  c42       -10000000
    y[1,1,0]  c55       -1
    y[1,2,1]  c6        1
    y[1,2,1]  c15       -10000000
    y[1,2,1]  c22       -5
    y[1,2,1]  c31       -10000000
    y[1,2,1]  c32       -10000000
    y[1,2,1]  c57       -2
    y[2,0,0]  c0        -3
    y[2,0,0]  c7        1
    y[2,0,0]  c16       -10000000
    y[2,0,0]  c27       -10000000
    y[2,0,0]  c28       -10000000
    y[2,0,0]  c39       -10000000
    y[2,0,0]  c40       -10000000
    y[2,0,0]  c43       -10000000
    y[2,0,0]  c44       -10000000
    y[2,0,0]  c45       -10000000
    y[2,0,0]  c46       -10000000
    y[2,0,0]  c59       -1
    y[2,1,2]  c8        1
    y[2,1,2]  c17       -10000000
    y[2,1,2]  c23       -4
    y[2,1,2]  c35       -10000000
    y[2,1,2]  c36       -10000000
    y[2,1,2]  c37       -10000000
    y[2,1,2]  c38       -10000000
    y[2,1,2]  c61       -3
    y[2,2,0]  c9        1
    y[2,2,0]  c18       -10000000
    y[2,2,0]  c24       -3
    y[2,2,0]  c29       -10000000
    y[2,2,0]  c30       -10000000
    y[2,2,0]  c41       -10000000
    y[2,2,0]  c42       -10000000
    y[2,2,0]  c43       -10000000
    y[2,2,0]  c44       -10000000
    y[2,2,0]  c45       -10000000
    y[2,2,0]  c46       -10000000
    x[0,0,0,0]  OBJ       0
    x[0,0,0,1]  OBJ       0
    x[0,0,0,2]  OBJ       0
    x[0,0,1,0]  OBJ       0
    x[0,0,1,1]  c25       10000000
    x[0,0,1,1]  c26       -10000000
    x[0,0,1,2]  OBJ       0
    x[0,0,2,0]  c27       10000000
    x[0,0,2,0]  c28       -10000000
    x[0,0,2,1]  OBJ       0
    x[0,0,2,2]  c29       10000000
    x[0,0,2,2]  c30       -10000000
    x[0,1,0,0]  OBJ       0
    x[0,1,0,1]  OBJ       0
    x[0,1,0,2]  OBJ       0
    x[0,1,1,0]  OBJ       0
    x[0,1,1,1]  OBJ       0
    x[0,1,1,2]  c31       10000000
    x[0,1,1,2]  c32       -10000000
    x[0,1,2,0]  OBJ       0
    x[0,1,2,1]  OBJ       0
    x[0,1,2,2]  OBJ       0
    x[0,2,0,0]  OBJ       0
    x[0,2,0,1]  OBJ       0
    x[0,2,0,2]  OBJ       0
    x[0,2,1,0]  c33       10000000
    x[0,2,1,0]  c34       -10000000
    x[0,2,1,1]  OBJ       0
    x[0,2,1,2]  OBJ       0
    x[0,2,2,0]  OBJ       0
    x[0,2,2,1]  c35       10000000
    x[0,2,2,1]  c36       -10000000
    x[0,2,2,2]  OBJ       0
    x[1,0,0,0]  OBJ       0
    x[1,0,0,1]  OBJ       0
    x[1,0,0,2]  OBJ       0
    x[1,0,1,0]  OBJ       0
    x[1,0,1,1]  OBJ       0
    x[1,0,1,2]  OBJ       0
    x[1,0,2,0]  OBJ       0
    x[1,0,2,1]  c37       10000000
    x[1,0,2,1]  c38       -10000000
    x[1,0,2,2]  OBJ       0
    x[1,1,0,0]  OBJ       0
    x[1,1,0,1]  OBJ       0
    x[1,1,0,2]  OBJ       0
    x[1,1,1,0]  OBJ       0
    x[1,1,1,1]  OBJ       0
    x[1,1,1,2]  OBJ       0
    x[1,1,2,0]  c39       10000000
    x[1,1,2,0]  c40       -10000000
    x[1,1,2,1]  OBJ       0
    x[1,1,2,2]  c41       10000000
    x[1,1,2,2]  c42       -10000000
    x[1,2,0,0]  OBJ       0
    x[1,2,0,1]  OBJ       0
    x[1,2,0,2]  OBJ       0
    x[1,2,1,0]  OBJ       0
    x[1,2,1,1]  OBJ       0
    x[1,2,1,2]  OBJ       0
    x[1,2,2,0]  OBJ       0
    x[1,2,2,1]  OBJ       0
    x[1,2,2,2]  OBJ       0
    x[2,0,0,0]  OBJ       0
    x[2,0,0,1]  OBJ       0
    x[2,0,0,2]  OBJ       0
    x[2,0,1,0]  OBJ       0
    x[2,0,1,1]  OBJ       0
    x[2,0,1,2]  OBJ       0
    x[2,0,2,0]  OBJ       0
    x[2,0,2,1]  OBJ       0
    x[2,0,2,2]  c43       10000000
    x[2,0,2,2]  c44       -10000000
    x[2,1,0,0]  OBJ       0
    x[2,1,0,1]  OBJ       0
    x[2,1,0,2]  OBJ       0
    x[2,1,1,0]  OBJ       0
    x[2,1,1,1]  OBJ       0
    x[2,1,1,2]  OBJ       0
    x[2,1,2,0]  OBJ       0
    x[2,1,2,1]  OBJ       0
    x[2,1,2,2]  OBJ       0
    x[2,2,0,0]  OBJ       0
    x[2,2,0,1]  OBJ       0
    x[2,2,0,2]  OBJ       0
    x[2,2,1,0]  OBJ       0
    x[2,2,1,1]  OBJ       0
    x[2,2,1,2]  OBJ       0
    x[2,2,2,0]  c45       10000000
    x[2,2,2,0]  c46       -10000000
    x[2,2,2,1]  OBJ       0
    x[2,2,2,2]  OBJ       0
    s[0,0,0]  c0        -1
    s[0,0,0]  c10       1
    s[0,0,0]  c19       1
    s[0,0,0]  c20       1
    s[0,0,0]  c25       -1
    s[0,0,0]  c26       1
    s[0,0,0]  c27       -1
    s[0,0,0]  c28       1
    s[0,0,0]  c29       -1
    s[0,0,0]  c30       1
    s[0,0,0]  c47       1
    s[0,0,0]  c48       1
    s[0,1,1]  c11       1
    s[0,1,1]  c19       -1
    s[0,1,1]  c31       -1
    s[0,1,1]  c32       1
    s[0,1,1]  c49       1
    s[0,1,1]  c50       1
    s[0,2,2]  c12       1
    s[0,2,2]  c20       -1
    s[0,2,2]  c33       -1
    s[0,2,2]  c34       1
    s[0,2,2]  c35       -1
    s[0,2,2]  c36       1
    s[0,2,2]  c51       1
    s[0,2,2]  c52       1
    s[1,0,2]  c0        -1
    s[1,0,2]  c13       1
    s[1,0,2]  c21       1
    s[1,0,2]  c22       1
    s[1,0,2]  c33       1
    s[1,0,2]  c34       -1
    s[1,0,2]  c37       -1
    s[1,0,2]  c38       1
    s[1,0,2]  c53       1
    s[1,0,2]  c54       1
    s[1,1,0]  c14       1
    s[1,1,0]  c21       -1
    s[1,1,0]  c25       1
    s[1,1,0]  c26       -1
    s[1,1,0]  c39       -1
    s[1,1,0]  c40       1
    s[1,1,0]  c41       -1
    s[1,1,0]  c42       1
    s[1,1,0]  c55       1
    s[1,1,0]  c56       1
    s[1,2,1]  c15       1
    s[1,2,1]  c22       -1
    s[1,2,1]  c31       1
    s[1,2,1]  c32       -1
    s[1,2,1]  c57       1
    s[1,2,1]  c58       1
    s[2,0,0]  c0        -1
    s[2,0,0]  c16       1
    s[2,0,0]  c23       1
    s[2,0,0]  c24       1
    s[2,0,0]  c27       1
    s[2,0,0]  c28       -1
    s[2,0,0]  c39       1
    s[2,0,0]  c40       -1
    s[2,0,0]  c43       -1
    s[2,0,0]  c44       1
    s[2,0,0]  c45       1
    s[2,0,0]  c46       -1
    s[2,0,0]  c59       1
    s[2,0,0]  c60       1
    s[2,1,2]  c17       1
    s[2,1,2]  c23       -1
    s[2,1,2]  c35       1
    s[2,1,2]  c36       -1
    s[2,1,2]  c37       1
    s[2,1,2]  c38       -1
    s[2,1,2]  c61       1
    s[2,1,2]  c62       1
    s[2,2,0]  c18       1
    s[2,2,0]  c24       -1
    s[2,2,0]  c29       1
    s[2,2,0]  c30       -1
    s[2,2,0]  c41       1
    s[2,2,0]  c42       -1
    s[2,2,0]  c43       1
    s[2,2,0]  c44       -1
    s[2,2,0]  c45       -1
    s[2,2,0]  c46       1
    s[2,2,0]  c63       1
    s[2,2,0]  c64       1
    Z_FO      OBJ       1
    Z_FO      c0        1
    MARKER    'MARKER'                 'INTEND'
RHS
    RHS1      c1        1
    RHS1      c2        1
    RHS1      c3        1
    RHS1      c4        1
    RHS1      c5        1
    RHS1      c6        1
    RHS1      c7        1
    RHS1      c8        1
    RHS1      c9        1
    RHS1      c25       -19999976
    RHS1      c26       -29999981
    RHS1      c27       -19999981
    RHS1      c28       -29999985
    RHS1      c29       -19999984
    RHS1      c30       -29999977
    RHS1      c31       -19999987
    RHS1      c32       -29999986
    RHS1      c33       -19999979
    RHS1      c34       -29999980
    RHS1      c35       -19999992
    RHS1      c36       -29999984
    RHS1      c37       -19999985
    RHS1      c38       -29999990
    RHS1      c39       -19999990
    RHS1      c40       -29999982
    RHS1      c41       -19999981
    RHS1      c42       -29999985
    RHS1      c43       -19999991
    RHS1      c44       -29999981
    RHS1      c45       -19999981
    RHS1      c46       -29999991
BOUNDS
 BV BND1      y[0,0,0]
 BV BND1      y[0,1,1]
 BV BND1      y[0,2,2]
 BV BND1      y[1,0,2]
 BV BND1      y[1,1,0]
 BV BND1      y[1,2,1]
 BV BND1      y[2,0,0]
 BV BND1      y[2,1,2]
 BV BND1      y[2,2,0]
 BV BND1      x[0,0,0,0]
 BV BND1      x[0,0,0,1]
 BV BND1      x[0,0,0,2]
 BV BND1      x[0,0,1,0]
 BV BND1      x[0,0,1,1]
 BV BND1      x[0,0,1,2]
 BV BND1      x[0,0,2,0]
 BV BND1      x[0,0,2,1]
 BV BND1      x[0,0,2,2]
 BV BND1      x[0,1,0,0]
 BV BND1      x[0,1,0,1]
 BV BND1      x[0,1,0,2]
 BV BND1      x[0,1,1,0]
 BV BND1      x[0,1,1,1]
 BV BND1      x[0,1,1,2]
 BV BND1      x[0,1,2,0]
 BV BND1      x[0,1,2,1]
 BV BND1      x[0,1,2,2]
 BV BND1      x[0,2,0,0]
 BV BND1      x[0,2,0,1]
 BV BND1      x[0,2,0,2]
 BV BND1      x[0,2,1,0]
 BV BND1      x[0,2,1,1]
 BV BND1      x[0,2,1,2]
 BV BND1      x[0,2,2,0]
 BV BND1      x[0,2,2,1]
 BV BND1      x[0,2,2,2]
 BV BND1      x[1,0,0,0]
 BV BND1      x[1,0,0,1]
 BV BND1      x[1,0,0,2]
 BV BND1      x[1,0,1,0]
 BV BND1      x[1,0,1,1]
 BV BND1      x[1,0,1,2]
 BV BND1      x[1,0,2,0]
 BV BND1      x[1,0,2,1]
 BV BND1      x[1,0,2,2]
 BV BND1      x[1,1,0,0]
 BV BND1      x[1,1,0,1]
 BV BND1      x[1,1,0,2]
 BV BND1      x[1,1,1,0]
 BV BND1      x[1,1,1,1]
 BV BND1      x[1,1,1,2]
 BV BND1      x[1,1,2,0]
 BV BND1      x[1,1,2,1]
 BV BND1      x[1,1,2,2]
 BV BND1      x[1,2,0,0]
 BV BND1      x[1,2,0,1]
 BV BND1      x[1,2,0,2]
 BV BND1      x[1,2,1,0]
 BV BND1      x[1,2,1,1]
 BV BND1      x[1,2,1,2]
 BV BND1      x[1,2,2,0]
 BV BND1      x[1,2,2,1]
 BV BND1      x[1,2,2,2]
 BV BND1      x[2,0,0,0]
 BV BND1      x[2,0,0,1]
 BV BND1      x[2,0,0,2]
 BV BND1      x[2,0,1,0]
 BV BND1      x[2,0,1,1]
 BV BND1      x[2,0,1,2]
 BV BND1      x[2,0,2,0]
 BV BND1      x[2,0,2,1]
 BV BND1      x[2,0,2,2]
 BV BND1      x[2,1,0,0]
 BV BND1      x[2,1,0,1]
 BV BND1      x[2,1,0,2]
 BV BND1      x[2,1,1,0]
 BV BND1      x[2,1,1,1]
 BV BND1      x[2,1,1,2]
 BV BND1      x[2,1,2,0]
 BV BND1      x[2,1,2,1]
 BV BND1      x[2,1,2,2]
 BV BND1      x[2,2,0,0]
 BV BND1      x[2,2,0,1]
 BV BND1      x[2,2,0,2]
 BV BND1      x[2,2,1,0]
 BV BND1      x[2,2,1,1]
 BV BND1      x[2,2,1,2]
 BV BND1      x[2,2,2,0]
 BV BND1      x[2,2,2,1]
 BV BND1      x[2,2,2,2]
 LI BND1      s[0,0,0]  0
 LI BND1      s[0,1,1]  0
 LI BND1      s[0,2,2]  0
 LI BND1      s[1,0,2]  0
 LI BND1      s[1,1,0]  0
 LI BND1      s[1,2,1]  0
 LI BND1      s[2,0,0]  0
 LI BND1      s[2,1,2]  0
 LI BND1      s[2,2,0]  0
 LI BND1      Z_FO      0
ENDATA
